p cnf 36 261
-10 -13 0
-10 -16 0
-10 -19 0
-10 -22 0
-10 -25 0
-10 -28 0
-10 -31 0
-10 -34 0
-13 -16 0
-13 -19 0
-13 -22 0
-13 -25 0
-13 -28 0
-13 -31 0
-13 -34 0
-16 -19 0
-16 -22 0
-16 -25 0
-16 -28 0
-16 -31 0
-16 -34 0
-19 -22 0
-19 -25 0
-19 -28 0
-19 -31 0
-19 -34 0
-22 -25 0
-22 -28 0
-22 -31 0
-22 -34 0
-25 -28 0
-25 -31 0
-25 -34 0
-28 -31 0
-28 -34 0
-31 -34 0
-11 -14 0
-11 -17 0
-11 -20 0
-11 -23 0
-11 -26 0
-11 -29 0
-11 -32 0
-11 -35 0
-14 -17 0
-14 -20 0
-14 -23 0
-14 -26 0
-14 -29 0
-14 -32 0
-14 -35 0
-17 -20 0
-17 -23 0
-17 -26 0
-17 -29 0
-17 -32 0
-17 -35 0
-20 -23 0
-20 -26 0
-20 -29 0
-20 -32 0
-20 -35 0
-23 -26 0
-23 -29 0
-23 -32 0
-23 -35 0
-26 -29 0
-26 -32 0
-26 -35 0
-29 -32 0
-29 -35 0
-32 -35 0
-12 -15 0
-12 -18 0
-12 -21 0
-12 -24 0
-12 -27 0
-12 -30 0
-12 -33 0
-12 -36 0
-15 -18 0
-15 -21 0
-15 -24 0
-15 -27 0
-15 -30 0
-15 -33 0
-15 -36 0
-18 -21 0
-18 -24 0
-18 -27 0
-18 -30 0
-18 -33 0
-18 -36 0
-21 -24 0
-21 -27 0
-21 -30 0
-21 -33 0
-21 -36 0
-24 -27 0
-24 -30 0
-24 -33 0
-24 -36 0
-27 -30 0
-27 -33 0
-27 -36 0
-30 -33 0
-30 -36 0
-33 -36 0
-11 -13 0
-12 -13 0
-12 -14 0
-11 -16 0
-12 -16 0
-12 -17 0
-11 -19 0
-12 -19 0
-12 -20 0
-11 -22 0
-12 -22 0
-12 -23 0
-11 -25 0
-12 -25 0
-12 -26 0
-11 -28 0
-12 -28 0
-12 -29 0
-11 -31 0
-12 -31 0
-12 -32 0
-11 -34 0
-12 -34 0
-12 -35 0
-14 -16 0
-15 -16 0
-15 -17 0
-14 -19 0
-15 -19 0
-15 -20 0
-14 -22 0
-15 -22 0
-15 -23 0
-14 -25 0
-15 -25 0
-15 -26 0
-14 -28 0
-15 -28 0
-15 -29 0
-14 -31 0
-15 -31 0
-15 -32 0
-14 -34 0
-15 -34 0
-15 -35 0
-17 -19 0
-18 -19 0
-18 -20 0
-17 -22 0
-18 -22 0
-18 -23 0
-17 -25 0
-18 -25 0
-18 -26 0
-17 -28 0
-18 -28 0
-18 -29 0
-17 -31 0
-18 -31 0
-18 -32 0
-17 -34 0
-18 -34 0
-18 -35 0
-20 -22 0
-21 -22 0
-21 -23 0
-20 -25 0
-21 -25 0
-21 -26 0
-20 -28 0
-21 -28 0
-21 -29 0
-20 -31 0
-21 -31 0
-21 -32 0
-20 -34 0
-21 -34 0
-21 -35 0
-23 -25 0
-24 -25 0
-24 -26 0
-23 -28 0
-24 -28 0
-24 -29 0
-23 -31 0
-24 -31 0
-24 -32 0
-23 -34 0
-24 -34 0
-24 -35 0
-26 -28 0
-27 -28 0
-27 -29 0
-26 -31 0
-27 -31 0
-27 -32 0
-26 -34 0
-27 -34 0
-27 -35 0
-29 -31 0
-30 -31 0
-30 -32 0
-29 -34 0
-30 -34 0
-30 -35 0
-32 -34 0
-33 -34 0
-33 -35 0
-10 1 0
-13 2 0
-16 3 0
-19 4 0
-22 5 0
-25 6 0
-28 7 0
-31 8 0
-34 9 0
-11 1 0
-14 2 0
-17 3 0
-20 4 0
-23 5 0
-26 6 0
-29 7 0
-32 8 0
-35 9 0
-12 1 0
-15 2 0
-18 3 0
-21 4 0
-24 5 0
-27 6 0
-30 7 0
-33 8 0
-36 9 0
-1 10 11 12 0
-2 13 14 15 0
-3 16 17 18 0
-4 19 20 21 0
-5 22 23 24 0
-6 25 26 27 0
-7 28 29 30 0
-8 31 32 33 0
-9 34 35 36 0
1 2 5 0
1 4 5 0
1 4 6 0
2 5 7 8 0
2 6 7 0
2 8 9 0
3 8 9 0
3 9 0
4 6 7 0
